c "805889.clq"
p edge 120 464
e 1 5
e 1 6
e 1 7
e 1 8
e 1 10
e 1 11
e 1 18
e 1 19
e 1 21
e 1 41
e 1 45
e 1 55
e 2 5
e 2 6
e 2 9
e 2 10
e 2 36
e 2 38
e 2 55
e 2 72
e 3 5
e 3 6
e 3 7
e 3 9
e 3 13
e 3 14
e 3 15
e 3 16
e 3 17
e 3 21
e 3 24
e 3 26
e 3 27
e 3 33
e 3 37
e 3 41
e 3 56
e 3 59
e 3 65
e 3 73
e 3 79
e 3 82
e 3 87
e 3 92
e 3 101
e 4 5
e 4 11
e 4 12
e 4 19
e 4 34
e 4 92
e 5 6
e 5 7
e 5 8
e 5 9
e 5 10
e 5 15
e 5 20
e 5 27
e 5 29
e 5 30
e 5 39
e 5 40
e 5 42
e 5 50
e 5 53
e 5 58
e 5 59
e 5 63
e 5 75
e 5 84
e 5 85
e 5 102
e 6 7
e 6 8
e 6 9
e 6 11
e 6 28
e 6 32
e 6 35
e 6 41
e 6 43
e 6 60
e 6 63
e 6 78
e 7 8
e 7 11
e 7 16
e 7 17
e 7 19
e 7 20
e 7 21
e 7 24
e 7 25
e 7 26
e 7 28
e 7 31
e 7 32
e 7 36
e 7 39
e 7 42
e 7 43
e 7 44
e 7 53
e 7 65
e 7 73
e 7 79
e 7 85
e 7 94
e 7 95
e 7 105
e 7 110
e 7 118
e 8 10
e 8 12
e 8 13
e 8 16
e 8 23
e 8 54
e 8 60
e 8 64
e 8 77
e 8 101
e 9 12
e 9 13
e 9 14
e 9 20
e 9 30
e 9 32
e 9 44
e 9 48
e 9 54
e 9 61
e 9 78
e 9 91
e 9 96
e 9 100
e 9 118
e 10 18
e 10 23
e 10 27
e 10 29
e 10 33
e 10 40
e 10 72
e 10 73
e 10 74
e 10 116
e 11 12
e 11 13
e 11 15
e 11 21
e 11 23
e 11 25
e 11 33
e 11 44
e 11 46
e 11 58
e 11 64
e 11 74
e 11 80
e 11 83
e 11 85
e 11 87
e 11 90
e 11 109
e 11 113
e 12 14
e 12 15
e 12 17
e 12 22
e 12 23
e 12 25
e 12 28
e 12 31
e 12 32
e 12 35
e 12 37
e 12 38
e 12 48
e 12 51
e 12 60
e 12 68
e 12 69
e 12 70
e 12 71
e 12 75
e 12 80
e 12 83
e 12 86
e 12 87
e 12 90
e 12 92
e 12 93
e 12 95
e 12 102
e 12 112
e 12 113
e 12 120
e 13 14
e 13 36
e 13 45
e 13 80
e 13 89
e 13 93
e 13 110
e 14 17
e 14 18
e 14 22
e 14 28
e 14 31
e 14 35
e 14 47
e 14 72
e 14 73
e 14 81
e 14 112
e 15 16
e 15 18
e 15 19
e 15 20
e 15 22
e 15 33
e 15 49
e 15 79
e 15 84
e 15 106
e 16 43
e 16 46
e 16 47
e 16 52
e 16 67
e 16 68
e 16 96
e 16 98
e 16 99
e 16 101
e 16 103
e 16 107
e 17 24
e 17 30
e 17 46
e 17 47
e 17 55
e 17 57
e 17 72
e 18 24
e 18 25
e 18 26
e 18 37
e 18 57
e 18 75
e 18 119
e 19 116
e 19 117
e 20 22
e 20 26
e 20 29
e 20 31
e 20 56
e 20 61
e 20 97
e 21 29
e 21 36
e 21 48
e 21 55
e 21 67
e 22 27
e 22 50
e 22 57
e 23 48
e 23 51
e 23 98
e 23 108
e 23 117
e 24 44
e 24 52
e 24 69
e 24 71
e 24 94
e 24 101
e 25 30
e 25 35
e 25 39
e 25 64
e 25 66
e 25 105
e 26 45
e 26 51
e 26 76
e 26 88
e 26 97
e 26 110
e 27 38
e 28 42
e 28 62
e 28 81
e 28 86
e 29 34
e 29 37
e 29 42
e 29 49
e 29 93
e 29 97
e 29 99
e 30 38
e 30 49
e 30 58
e 30 67
e 31 34
e 31 69
e 31 82
e 31 100
e 31 120
e 32 34
e 32 41
e 32 43
e 32 50
e 32 54
e 32 56
e 32 108
e 33 52
e 33 62
e 33 63
e 33 77
e 33 81
e 33 85
e 33 104
e 33 113
e 34 39
e 34 53
e 34 61
e 34 68
e 34 70
e 34 71
e 34 78
e 35 102
e 36 40
e 36 51
e 36 93
e 37 58
e 37 61
e 38 40
e 38 45
e 38 71
e 38 75
e 39 47
e 39 54
e 39 60
e 39 86
e 39 108
e 40 65
e 40 81
e 40 84
e 40 107
e 41 56
e 41 68
e 41 69
e 41 102
e 42 52
e 42 63
e 42 70
e 42 74
e 42 79
e 42 80
e 43 49
e 43 57
e 43 66
e 43 67
e 43 76
e 43 77
e 43 84
e 43 96
e 43 104
e 43 114
e 43 116
e 44 46
e 44 66
e 44 90
e 44 99
e 45 107
e 45 115
e 46 59
e 47 74
e 47 83
e 47 89
e 47 100
e 47 111
e 48 50
e 48 53
e 48 88
e 48 91
e 50 106
e 50 110
e 50 111
e 51 111
e 51 116
e 52 59
e 52 106
e 52 113
e 53 100
e 54 88
e 54 99
e 55 62
e 55 77
e 55 91
e 56 87
e 56 114
e 57 94
e 58 76
e 58 94
e 59 62
e 59 64
e 63 65
e 63 95
e 64 66
e 64 114
e 65 70
e 69 90
e 69 115
e 69 117
e 70 106
e 71 76
e 71 92
e 71 108
e 71 119
e 73 83
e 74 86
e 74 89
e 74 91
e 74 115
e 74 119
e 75 78
e 75 82
e 75 98
e 75 115
e 75 120
e 76 118
e 77 112
e 79 88
e 79 95
e 79 109
e 80 82
e 80 89
e 80 96
e 81 107
e 84 117
e 86 103
e 88 103
e 90 105
e 90 109
e 91 98
e 93 104
e 93 114
e 94 97
e 97 104
e 99 103
e 101 105
e 105 112
e 106 111
e 107 120
e 108 109
e 110 118
e 114 119
